&DOS
 outdir = './tmp',
 prefix = 'C_k42'
&end
