&DOS
 outdir = './tmp',
 prefix = 'C_k6'
&end
