&CONTROL
 calculation = 'scf',
 restart_mode='from_scratch',
 prefix = 'C_k18',
 pseudo_dir = '/home/max/Desktop/graphite_DFT/Pseudo',
 outdir = './tmp',
 tprnfor = .true.,
 tstress = .true.,
 verbosity = 'high',
/
&SYSTEM                     ! // aflow 
 ibrav=0,                   ! // free 
 celldm(1)=4.66762353,
 nat=4,                     ! // a.atoms.size() 
 ntyp=1                     ! // a.num_each_type.size()

ecutwfc = 45,
ecutrho = 360,

occupations = 'smearing'
smearing ='mp',
degauss = 0.05,
/
&ELECTRONS
 conv_thr =   1.0d-9
/
ATOMIC_SPECIES
 C  12.011   C.pbe-n-rrkjus_psl.1.0.0.UPF

CELL_PARAMETERS alat
   0.998113178   0.000000000   0.000000000
  -0.499056589   0.864391368   0.000000000
   0.000000000   0.000000000   3.372579869

ATOMIC_POSITIONS crystal
C -0.0000229037       -0.0000458074        0.2500000000
C 0.0000229037        0.0000458074        0.7500000000
C 0.3333231315        0.6666462630        0.2500000000
C 0.6666768685        0.3333537370        0.7500000000

K_POINTS automatic
 18 18 6 0 0 0
