&DOS
 outdir = './tmp',
 prefix = 'C_k48'
&end
